(set-info :smt-lib-version 2.6)
(set-logic UF)
(set-info :source |Benchmarks from the paper: "Extending Sledgehammer with SMT Solvers" by Jasmin Blanchette, Sascha Bohme, and Lawrence C. Paulson, CADE 2011.  Translated to SMT2 by Andrew Reynolds and Morgan Deters.|)
(set-info :category "industrial")
(set-info :status sat)
(declare-sort S1 0)
(declare-sort S2 0)
(declare-sort S3 0)
(declare-sort S4 0)
(declare-sort S5 0)
(declare-sort S6 0)
(declare-sort S7 0)
(declare-sort S8 0)
(declare-sort S9 0)
(declare-sort S10 0)
(declare-sort S11 0)
(declare-fun f1 () S1)
(declare-fun f2 () S1)
(declare-fun f3 (S3 S2) S1)
(declare-fun f4 (S2) S3)
(declare-fun f5 (S5 S4) S1)
(declare-fun f6 (S4) S5)
(declare-fun f7 (S2) S3)
(declare-fun f8 (S4) S5)
(declare-fun f9 (S6 S3) S3)
(declare-fun f10 (S2) S6)
(declare-fun f11 (S7 S5) S5)
(declare-fun f12 (S4) S7)
(declare-fun f13 (S2) S6)
(declare-fun f14 (S4) S7)
(declare-fun f15 () S3)
(declare-fun f16 () S5)
(declare-fun f17 (S3 S3) S1)
(declare-fun f18 () S3)
(declare-fun f19 (S2) S6)
(declare-fun f20 (S8 S9) S2)
(declare-fun f21 () S8)
(declare-fun f22 () S9)
(declare-fun f23 () S3)
(declare-fun f24 () S1)
(declare-fun f25 (S4 S5) S1)
(declare-fun f26 (S10) S5)
(declare-fun f27 () S10)
(declare-fun f28 (S4) S9)
(declare-fun f29 (S2 S3) S1)
(declare-fun f30 (S4) S7)
(declare-fun f31 () S5)
(declare-fun f32 (S3) S3)
(declare-fun f33 (S5) S5)
(assert (not (= f1 f2)))
(assert (forall ((?v0 S2) (?v1 S2)) (= (= (f3 (f4 ?v0) ?v1) f1) (= ?v0 ?v1))))
(assert (forall ((?v0 S4) (?v1 S4)) (= (= (f5 (f6 ?v0) ?v1) f1) (= ?v0 ?v1))))
(assert (forall ((?v0 S2) (?v1 S2)) (= (= (f3 (f7 ?v0) ?v1) f1) (= ?v1 ?v0))))
(assert (forall ((?v0 S4) (?v1 S4)) (= (= (f5 (f8 ?v0) ?v1) f1) (= ?v1 ?v0))))
(assert (forall ((?v0 S2) (?v1 S3) (?v2 S2)) (= (= (f3 (f9 (f10 ?v0) ?v1) ?v2) f1) (and (= ?v0 ?v2) (= (f3 ?v1 ?v2) f1)))))
(assert (forall ((?v0 S4) (?v1 S5) (?v2 S4)) (= (= (f5 (f11 (f12 ?v0) ?v1) ?v2) f1) (and (= ?v0 ?v2) (= (f5 ?v1 ?v2) f1)))))
(assert (forall ((?v0 S2) (?v1 S3) (?v2 S2)) (= (= (f3 (f9 (f13 ?v0) ?v1) ?v2) f1) (and (= ?v2 ?v0) (= (f3 ?v1 ?v2) f1)))))
(assert (forall ((?v0 S4) (?v1 S5) (?v2 S4)) (= (= (f5 (f11 (f14 ?v0) ?v1) ?v2) f1) (and (= ?v2 ?v0) (= (f5 ?v1 ?v2) f1)))))
(assert (forall ((?v0 S2)) (= (= (f3 f15 ?v0) f1) false)))
(assert (forall ((?v0 S4)) (= (= (f5 f16 ?v0) f1) false)))
(assert (not (= (f17 f18 (f9 (f19 (f20 f21 f22)) f23)) f1)))
(assert (= f24 f1))
(assert (forall ((?v0 S4)) (=> (= (f25 ?v0 (f26 f27)) f1) (= (f17 f18 (f9 (f19 (f20 f21 (f28 ?v0))) f23)) f1))))
(assert (forall ((?v0 S3)) (= (f17 ?v0 f23) f1)))
(assert (forall ((?v0 S3) (?v1 S3) (?v2 S3)) (=> (= (f17 ?v0 ?v1) f1) (=> (= (f17 ?v2 ?v0) f1) (= (f17 ?v2 ?v1) f1)))))
(assert (forall ((?v0 S3) (?v1 S2) (?v2 S3)) (let ((?v_0 (f19 ?v1))) (=> (= (f17 ?v0 (f9 ?v_0 f23)) f1) (=> (= (f17 ?v0 ?v2) f1) (= (f17 ?v0 (f9 ?v_0 ?v2)) f1))))))
(assert (forall ((?v0 S3) (?v1 S2) (?v2 S3)) (let ((?v_0 (f19 ?v1))) (=> (= (f17 ?v0 (f9 ?v_0 ?v2)) f1) (and (= (f17 ?v0 (f9 ?v_0 f23)) f1) (= (f17 ?v0 ?v2) f1))))))
(assert (forall ((?v0 S2) (?v1 S2) (?v2 S3)) (=> (= (f29 ?v0 (f9 (f19 ?v1) ?v2)) f1) (=> (=> (= ?v0 ?v1) false) (=> (=> (= (f29 ?v0 ?v2) f1) false) false)))))
(assert (forall ((?v0 S4) (?v1 S4) (?v2 S5)) (=> (= (f25 ?v0 (f11 (f30 ?v1) ?v2)) f1) (=> (=> (= ?v0 ?v1) false) (=> (=> (= (f25 ?v0 ?v2) f1) false) false)))))
(assert (forall ((?v0 S2) (?v1 S3) (?v2 S2)) (=> (=> (not (= (f29 ?v0 ?v1) f1)) (= ?v0 ?v2)) (= (f29 ?v0 (f9 (f19 ?v2) ?v1)) f1))))
(assert (forall ((?v0 S4) (?v1 S5) (?v2 S4)) (=> (=> (not (= (f25 ?v0 ?v1) f1)) (= ?v0 ?v2)) (= (f25 ?v0 (f11 (f30 ?v2) ?v1)) f1))))
(assert (forall ((?v0 S4)) (=> (= (f25 ?v0 f31) f1) false)))
(assert (forall ((?v0 S2)) (=> (= (f29 ?v0 f23) f1) false)))
(assert (forall ((?v0 S2)) (= (f32 (f4 ?v0)) (f9 (f19 ?v0) f23))))
(assert (forall ((?v0 S4)) (= (f33 (f6 ?v0)) (f11 (f30 ?v0) f31))))
(assert (forall ((?v0 S2)) (= (f32 (f7 ?v0)) (f9 (f19 ?v0) f23))))
(assert (forall ((?v0 S4)) (= (f33 (f8 ?v0)) (f11 (f30 ?v0) f31))))
(assert (forall ((?v0 S2) (?v1 S3)) (= (f32 (f9 (f10 ?v0) ?v1)) (ite (= (f3 ?v1 ?v0) f1) (f9 (f19 ?v0) f23) f23))))
(assert (forall ((?v0 S4) (?v1 S5)) (= (f33 (f11 (f12 ?v0) ?v1)) (ite (= (f5 ?v1 ?v0) f1) (f11 (f30 ?v0) f31) f31))))
(assert (forall ((?v0 S2) (?v1 S3)) (= (f32 (f9 (f13 ?v0) ?v1)) (ite (= (f3 ?v1 ?v0) f1) (f9 (f19 ?v0) f23) f23))))
(assert (forall ((?v0 S4) (?v1 S5)) (= (f33 (f11 (f14 ?v0) ?v1)) (ite (= (f5 ?v1 ?v0) f1) (f11 (f30 ?v0) f31) f31))))
(assert (forall ((?v0 S4)) (not (= f22 (f28 ?v0)))))
(assert (forall ((?v0 S4)) (not (= (f28 ?v0) f22))))
(assert (= (= f24 f1) (exists ((?v0 S11) (?v1 S11)) (not (= ?v0 ?v1)))))
(assert (=> (= f24 f1) (forall ((?v0 S11)) (=> (forall ((?v1 S11)) (= ?v1 ?v0)) false))))
(assert (forall ((?v0 S2) (?v1 S3)) (not (= f23 (f9 (f19 ?v0) ?v1)))))
(assert (forall ((?v0 S4) (?v1 S5)) (not (= f31 (f11 (f30 ?v0) ?v1)))))
(assert (forall ((?v0 S5) (?v1 S4)) (=> (= ?v0 f31) (not (= (f25 ?v1 ?v0) f1)))))
(assert (forall ((?v0 S3) (?v1 S2)) (=> (= ?v0 f23) (not (= (f29 ?v1 ?v0) f1)))))
(assert (forall ((?v0 S3)) (= (= (f32 ?v0) f23) (forall ((?v1 S2)) (not (= (f3 ?v0 ?v1) f1))))))
(assert (forall ((?v0 S5)) (= (= (f33 ?v0) f31) (forall ((?v1 S4)) (not (= (f5 ?v0 ?v1) f1))))))
(assert (forall ((?v0 S4)) (= (= (f25 ?v0 f31) f1) false)))
(assert (forall ((?v0 S2)) (= (= (f29 ?v0 f23) f1) false)))
(assert (forall ((?v0 S3)) (= (= f23 (f32 ?v0)) (forall ((?v1 S2)) (not (= (f3 ?v0 ?v1) f1))))))
(assert (forall ((?v0 S5)) (= (= f31 (f33 ?v0)) (forall ((?v1 S4)) (not (= (f5 ?v0 ?v1) f1))))))
(assert (forall ((?v0 S5)) (= (forall ((?v1 S4)) (=> (= (f25 ?v1 f31) f1) (= (f5 ?v0 ?v1) f1))) true)))
(assert (forall ((?v0 S3)) (= (forall ((?v1 S2)) (=> (= (f29 ?v1 f23) f1) (= (f3 ?v0 ?v1) f1))) true)))
(assert (forall ((?v0 S5)) (= (exists ((?v1 S4)) (and (= (f25 ?v1 f31) f1) (= (f5 ?v0 ?v1) f1))) false)))
(assert (forall ((?v0 S3)) (= (exists ((?v1 S2)) (and (= (f29 ?v1 f23) f1) (= (f3 ?v0 ?v1) f1))) false)))
(assert (forall ((?v0 S5)) (= (exists ((?v1 S4)) (= (f25 ?v1 ?v0) f1)) (not (= ?v0 f31)))))
(assert (forall ((?v0 S3)) (= (exists ((?v1 S2)) (= (f29 ?v1 ?v0) f1)) (not (= ?v0 f23)))))
(assert (forall ((?v0 S5)) (= (forall ((?v1 S4)) (not (= (f25 ?v1 ?v0) f1))) (= ?v0 f31))))
(assert (forall ((?v0 S3)) (= (forall ((?v1 S2)) (not (= (f29 ?v1 ?v0) f1))) (= ?v0 f23))))
(assert (= f23 (f32 f15)))
(assert (= f31 (f33 f16)))
(assert (forall ((?v0 S2) (?v1 S3)) (=> (= (f29 ?v0 ?v1) f1) (= (f9 (f19 ?v0) ?v1) ?v1))))
(assert (forall ((?v0 S4) (?v1 S5)) (=> (= (f25 ?v0 ?v1) f1) (= (f11 (f30 ?v0) ?v1) ?v1))))
(assert (forall ((?v0 S2) (?v1 S3) (?v2 S2)) (=> (= (f29 ?v0 ?v1) f1) (= (f29 ?v0 (f9 (f19 ?v2) ?v1)) f1))))
(assert (forall ((?v0 S4) (?v1 S5) (?v2 S4)) (=> (= (f25 ?v0 ?v1) f1) (= (f25 ?v0 (f11 (f30 ?v2) ?v1)) f1))))
(assert (forall ((?v0 S2) (?v1 S3) (?v2 S3)) (let ((?v_0 (f19 ?v0))) (=> (not (= (f29 ?v0 ?v1) f1)) (=> (not (= (f29 ?v0 ?v2) f1)) (= (= (f9 ?v_0 ?v1) (f9 ?v_0 ?v2)) (= ?v1 ?v2)))))))
(assert (forall ((?v0 S4) (?v1 S5) (?v2 S5)) (let ((?v_0 (f30 ?v0))) (=> (not (= (f25 ?v0 ?v1) f1)) (=> (not (= (f25 ?v0 ?v2) f1)) (= (= (f11 ?v_0 ?v1) (f11 ?v_0 ?v2)) (= ?v1 ?v2)))))))
(assert (forall ((?v0 S2) (?v1 S3) (?v2 S2)) (= (= (f3 (f9 (f19 ?v0) ?v1) ?v2) f1) (or (= ?v0 ?v2) (= (f3 ?v1 ?v2) f1)))))
(assert (forall ((?v0 S4) (?v1 S5) (?v2 S4)) (= (= (f5 (f11 (f30 ?v0) ?v1) ?v2) f1) (or (= ?v0 ?v2) (= (f5 ?v1 ?v2) f1)))))
(assert (forall ((?v0 S2) (?v1 S2) (?v2 S3)) (= (= (f29 ?v0 (f9 (f19 ?v1) ?v2)) f1) (or (= ?v0 ?v1) (= (f29 ?v0 ?v2) f1)))))
(assert (forall ((?v0 S4) (?v1 S4) (?v2 S5)) (= (= (f25 ?v0 (f11 (f30 ?v1) ?v2)) f1) (or (= ?v0 ?v1) (= (f25 ?v0 ?v2) f1)))))
(assert (forall ((?v0 S2) (?v1 S2) (?v2 S3)) (let ((?v_1 (f19 ?v0)) (?v_0 (f19 ?v1))) (= (f9 ?v_1 (f9 ?v_0 ?v2)) (f9 ?v_0 (f9 ?v_1 ?v2))))))
(assert (forall ((?v0 S4) (?v1 S4) (?v2 S5)) (let ((?v_1 (f30 ?v0)) (?v_0 (f30 ?v1))) (= (f11 ?v_1 (f11 ?v_0 ?v2)) (f11 ?v_0 (f11 ?v_1 ?v2))))))
(assert (forall ((?v0 S2) (?v1 S3)) (let ((?v_0 (f19 ?v0))) (let ((?v_1 (f9 ?v_0 ?v1))) (= (f9 ?v_0 ?v_1) ?v_1)))))
(assert (forall ((?v0 S4) (?v1 S5)) (let ((?v_0 (f30 ?v0))) (let ((?v_1 (f11 ?v_0 ?v1))) (= (f11 ?v_0 ?v_1) ?v_1)))))
(check-sat)
(exit)
